1399
49 70 79 71 4 18 11 83 21 88 86 51 94 89 41 73 58 66 6 53 72 44 39 61 75 68 63 77 23 95 60 81 10 42 80 82 25 92 91 19 87 56 65 17 30 15 14 24 85 31 9 84 99 55 22 67 76 50 20 93 98 69 45 36 59 54 1 96 90 38 33 74 34 26 27 13 12 29 32 2 97 47 78 62 57 5 8 28 48 35 52 40 3 37 43 64 7 16 46 
